c A SAT instance generated from a 3-CNF formula that had 30 clauses and 10 variables
p cnf 10 30
-1 10 -7 0
7 -5 -2 0
1 -10 -4 0
-1 -10 2 0
10 -5 -4 0
-3 4 10 0
-8 -2 4 0
3 -6 4 0
5 7 -9 0
3 -8 4 0
-2 7 -9 0
10 3 -6 0
7 -9 -3 0
5 6 2 0
6 -3 -9 0
4 -7 -9 0
-3 -8 4 0
10 6 -8 0
1 2 7 0
-8 -10 1 0
-5 -2 -3 0
-8 4 6 0
-8 -5 3 0
-4 -7 1 0
-1 8 4 0
1 -10 -4 0
-7 -10 2 0
3 5 4 0
-5 10 -7 0
-8 9 -4 0
